Maximize
  - 39 x0 - 45 x1 + 0 x2 + 0 x3 - 5 x4 + 0 x5 - 45 x6 - 34 x7 - 18 x8
   + 20 x9 + 16 x10 - 42 x11 + 0 x12 + 0 x13 + 33 x14 - 33 x15 + 26 x16
   - 8 x17 - 49 x18 - 35 x19 + 32 x20 + 0 x21 + 23 x22 + 47 x23 - 25 x24
   - 40 x25 - 33 x26 + 25 x27 - 47 x28 + 0 x29 + [ 15 x0 ^2 - 60 x0 * x1
   - 74 x0 * x3 + 12 x0 * x4 - 74 x0 * x5 - 88 x0 * x7 - 42 x0 * x8
   + 46 x0 * x9 + 78 x0 * x10 - 32 x0 * x11 + 14 x0 * x12 + 42 x0 * x13
   + 80 x0 * x16 + 6 x0 * x18 - 34 x0 * x19 - 34 x0 * x21 + 90 x0 * x22
   - 42 x0 * x23 + 32 x0 * x24 + 34 x0 * x25 + 84 x0 * x26 - 20 x0 * x27
   + 46 x0 * x28 - 78 x0 * x29 + 2 x1 ^2 - 4 x1 * x2 - 44 x1 * x3
   + 70 x1 * x4 - 10 x1 * x7 + 94 x1 * x8 - 96 x1 * x9 + 18 x1 * x10
   + 44 x1 * x11 - 38 x1 * x13 - 88 x1 * x14 - 38 x1 * x15 + 70 x1 * x16
   - 42 x1 * x17 - 24 x1 * x18 + 72 x1 * x19 - 82 x1 * x20 + 28 x1 * x21
   - 12 x1 * x22 + 92 x1 * x23 + 16 x1 * x24 + 2 x1 * x25 - 30 x1 * x26
   - 46 x1 * x27 - 64 x1 * x28 + 6 x1 * x29 - 30 x2 ^2 - 12 x2 * x3
   - 58 x2 * x4 + 28 x2 * x6 - 54 x2 * x7 - 32 x2 * x8 + 42 x2 * x9
   - 92 x2 * x11 - 48 x2 * x12 - 84 x2 * x15 - 46 x2 * x16 - 38 x2 * x17
   - 54 x2 * x18 - 92 x2 * x19 - 58 x2 * x20 - 56 x2 * x21 - 22 x2 * x22
   - 14 x2 * x23 - 54 x2 * x26 - 20 x2 * x27 + 12 x2 * x28 - 70 x2 * x29
   + 35 x3 ^2 - 88 x3 * x4 - 12 x3 * x6 + 38 x3 * x7 - 8 x3 * x9
   - 94 x3 * x11 - 22 x3 * x12 + 52 x3 * x13 + 78 x3 * x14 - 34 x3 * x15
   - 58 x3 * x16 - 64 x3 * x17 - 20 x3 * x18 + 4 x3 * x20 - 52 x3 * x22
   + 30 x3 * x24 + 90 x3 * x25 + 7 x4 ^2 - 16 x4 * x5 - 32 x4 * x7
   - 58 x4 * x8 + 84 x4 * x9 + 46 x4 * x10 + 70 x4 * x11 - 40 x4 * x12
   + 80 x4 * x13 + 12 x4 * x14 + 46 x4 * x15 - 98 x4 * x16 + 18 x4 * x17
   + 92 x4 * x18 + 86 x4 * x20 + 46 x4 * x21 + 12 x4 * x22 + 84 x4 * x26
   + 82 x4 * x27 - 84 x4 * x29 - 45 x5 ^2 + 88 x5 * x6 - 88 x5 * x7
   + 62 x5 * x8 - 38 x5 * x9 - 42 x5 * x10 + 22 x5 * x11 - 78 x5 * x12
   - 8 x5 * x13 + 82 x5 * x15 + 78 x5 * x16 + 66 x5 * x17 - 94 x5 * x18
   - 64 x5 * x20 + 14 x5 * x21 + 20 x5 * x23 + 18 x5 * x24 + 2 x5 * x25
   + 6 x5 * x26 - 20 x5 * x27 + 32 x5 * x28 + 68 x6 * x8 + 58 x6 * x9
   - 22 x6 * x10 - 34 x6 * x11 + 76 x6 * x13 - 16 x6 * x14 + 10 x6 * x15
   + 16 x6 * x16 - 78 x6 * x17 - 86 x6 * x18 + 30 x6 * x19 + 68 x6 * x20
   + 48 x6 * x21 + 10 x6 * x22 - 38 x6 * x23 + 70 x6 * x25 + 62 x6 * x26
   - 72 x6 * x27 + 82 x6 * x28 + 46 x7 ^2 + 50 x7 * x9 - 96 x7 * x10
   - 70 x7 * x12 + 90 x7 * x13 + 62 x7 * x14 + 64 x7 * x15 + 34 x7 * x16
   - 20 x7 * x17 - 72 x7 * x18 + 92 x7 * x19 - 36 x7 * x21 - 74 x7 * x23
   + 50 x7 * x25 + 94 x7 * x26 - 76 x7 * x27 + 26 x7 * x28 - 13 x8 ^2
   - 56 x8 * x12 + 64 x8 * x13 + 92 x8 * x15 + 72 x8 * x16 + 60 x8 * x17
   + 90 x8 * x21 - 84 x8 * x22 - 10 x8 * x23 - 6 x8 * x24 + 54 x8 * x25
   - 90 x8 * x26 + 98 x8 * x27 + 35 x9 ^2 + 40 x9 * x12 + 42 x9 * x14
   - 60 x9 * x15 + 84 x9 * x16 + 60 x9 * x17 - 26 x9 * x18 - 92 x9 * x19
   + 8 x9 * x20 - 74 x9 * x21 + 32 x9 * x26 + 40 x9 * x27 - 32 x9 * x29
   - 25 x10 ^2 + 2 x10 * x11 + 2 x10 * x12 + 50 x10 * x13 - 72 x10 * x14
   - 90 x10 * x15 - 50 x10 * x16 + 76 x10 * x17 + 32 x10 * x20
   - 94 x10 * x22 + 14 x10 * x23 + 2 x10 * x24 + 76 x10 * x25
   + 62 x10 * x28 + 48 x11 ^2 + 14 x11 * x12 - 26 x11 * x13 - 18 x11 * x15
   - 2 x11 * x16 - 4 x11 * x17 + 76 x11 * x18 - 8 x11 * x19 - 94 x11 * x20
   + 72 x11 * x21 - 82 x11 * x22 - 20 x11 * x23 - 94 x11 * x24
   - 40 x11 * x25 - 24 x11 * x26 + 50 x11 * x27 + 6 x11 * x28 + 27 x12 ^2
   + 42 x12 * x14 + 64 x12 * x16 - 88 x12 * x17 + 46 x12 * x18
   + 60 x12 * x21 + 6 x12 * x22 - 72 x12 * x23 + 80 x12 * x25
   - 94 x12 * x26 - 10 x12 * x27 + 80 x12 * x28 - 84 x12 * x29 + 42 x13 ^2
   - 64 x13 * x14 - 56 x13 * x15 + 80 x13 * x16 + 2 x13 * x17
   + 88 x13 * x19 + 48 x13 * x21 + 58 x13 * x22 + 30 x13 * x23
   - 86 x13 * x24 + 74 x13 * x25 + 62 x13 * x26 - 18 x13 * x27
   + 10 x13 * x29 + 26 x14 ^2 - 44 x14 * x15 + 58 x14 * x16 + 76 x14 * x17
   + 74 x14 * x18 - 14 x14 * x19 + 40 x14 * x20 - 88 x14 * x21
   - 6 x14 * x22 - 98 x14 * x23 + 90 x14 * x24 - 36 x14 * x25
   + 66 x14 * x26 - 98 x14 * x27 + 94 x15 * x17 + 32 x15 * x18
   + 42 x15 * x20 + 14 x15 * x21 - 14 x15 * x23 + 12 x15 * x24
   - 16 x15 * x25 + 20 x15 * x26 - 38 x15 * x27 - 52 x15 * x28 + 8 x16 ^2
   - 16 x16 * x17 - 70 x16 * x18 - 44 x16 * x19 + 36 x16 * x20
   + 76 x16 * x21 - 90 x16 * x22 - 56 x16 * x23 + 48 x16 * x24
   - 10 x16 * x25 - 38 x16 * x26 + 88 x16 * x27 + 70 x16 * x28 - 23 x17 ^2
   + 10 x17 * x18 + 34 x17 * x19 + 20 x17 * x21 + 56 x17 * x24
   - 70 x17 * x25 + 26 x17 * x27 + 10 x17 * x28 + 42 x17 * x29 + 30 x18 ^2
   - 84 x18 * x19 + 72 x18 * x21 - 48 x18 * x22 - 26 x18 * x23
   + 48 x18 * x24 - 18 x18 * x25 + 72 x18 * x26 + 90 x18 * x29 - 15 x19 ^2
   + 96 x19 * x20 - 70 x19 * x21 - 58 x19 * x22 - 10 x19 * x23
   - 92 x19 * x24 + 60 x19 * x25 + 46 x19 * x26 - 62 x19 * x27
   - 92 x19 * x28 + 68 x19 * x29 + 35 x20 ^2 + 94 x20 * x21 + 88 x20 * x27
   + 44 x20 * x28 + 19 x21 ^2 + 32 x21 * x23 + 96 x21 * x24 + 86 x21 * x26
   + 80 x21 * x27 + 86 x21 * x28 + 35 x22 ^2 + 22 x22 * x23 - 2 x22 * x24
   - 26 x22 * x25 - 92 x22 * x26 + 76 x22 * x27 + 16 x22 * x28
   + 72 x22 * x29 - 10 x23 ^2 - 64 x23 * x24 - 20 x23 * x25 - 86 x23 * x26
   - 56 x23 * x27 - 50 x23 * x28 - 70 x23 * x29 + 26 x24 * x25
   + 96 x24 * x26 - 92 x24 * x29 + 16 x25 ^2 - 26 x25 * x28 - 16 x25 * x29
   + 42 x26 ^2 - 80 x26 * x27 - 88 x26 * x28 - 56 x26 * x29 + 47 x27 ^2
   + 56 x27 * x28 - 88 x27 * x29 + 36 x28 ^2 - 94 x28 * x29 ] / 2 
Subject To
Bounds
 x0 <= 1
 x1 <= 1
 x2 <= 1
 x3 <= 1
 x4 <= 1
 x5 <= 1
 x6 <= 1
 x7 <= 1
 x8 <= 1
 x9 <= 1
 x10 <= 1
 x11 <= 1
 x12 <= 1
 x13 <= 1
 x14 <= 1
 x15 <= 1
 x16 <= 1
 x17 <= 1
 x18 <= 1
 x19 <= 1
 x20 <= 1
 x21 <= 1
 x22 <= 1
 x23 <= 1
 x24 <= 1
 x25 <= 1
 x26 <= 1
 x27 <= 1
 x28 <= 1
 x29 <= 1
End
